c Random 4-CNF over 30 variables and 90 clauses
c Generated with `cnfgen`
c (C) 2012-2016 Massimo Lauria <lauria.massimo@gmail.com>
c https://massimolauria.github.io/cnfgen
c
c COMMAND LINE: cnfgen --output tmp-4-30-90.dimacs --output-format dimacs randkcnf 4 30 90
c
c sdimacs generated by gen-sdimacs
c
p cnf 30 90
r 0.5 1 2 3 4 5 6 7 8 9 10 11 12 13 14 15 0
e  16 17 18 19 20 21 22 23 24 25 26 27 28 29 30 0
1 -15 20 -21 0
19 20 -23 -26 0
6 11 27 29 0
-9 -22 -24 26 0
22 -24 27 -29 0
-1 -3 -10 27 0
-6 -14 16 28 0
-1 8 -13 19 0
-3 11 21 28 0
-6 7 11 -17 0
-2 16 -25 27 0
-4 -6 -7 -23 0
15 -16 23 24 0
-17 -21 -27 29 0
-8 14 26 27 0
-22 24 -27 30 0
3 12 26 28 0
-9 17 19 26 0
-3 -17 -22 25 0
-2 11 14 -27 0
14 -15 27 29 0
4 -6 -16 -26 0
1 -4 -19 29 0
4 10 -11 21 0
8 10 12 -16 0
-8 -14 22 -23 0
-12 14 19 -25 0
4 -7 16 22 0
-2 -6 -9 10 0
-2 7 8 -23 0
9 -17 -19 -21 0
1 -7 18 -30 0
-1 -9 -11 -23 0
5 18 -24 -29 0
-14 15 22 -28 0
-4 8 22 25 0
-8 -10 16 -19 0
-3 -13 -23 24 0
-3 -7 -18 30 0
-7 -15 -20 29 0
-7 19 -22 -27 0
3 9 27 -28 0
-6 14 22 23 0
-13 -15 24 28 0
-7 15 -24 28 0
-11 -18 19 -20 0
3 -19 -23 30 0
13 -16 23 -27 0
-2 14 -23 -27 0
2 3 11 -28 0
12 17 27 30 0
8 -10 21 24 0
2 -16 -23 -27 0
-2 -3 14 22 0
4 6 8 -30 0
-8 -14 21 -27 0
6 10 -14 29 0
-2 -7 -25 28 0
-15 -20 -26 29 0
-1 -6 19 26 0
2 -7 9 18 0
2 -7 23 -26 0
-2 -10 -16 -19 0
6 -15 -16 -28 0
-2 14 -22 23 0
-1 -15 -16 -25 0
2 5 -29 -30 0
-5 -8 -9 30 0
8 15 -21 28 0
4 -17 23 -28 0
-11 -15 -21 23 0
1 9 18 -21 0
13 -14 17 20 0
-1 2 -14 -30 0
-4 11 -18 -27 0
-2 -4 16 17 0
9 15 16 18 0
7 -10 18 -22 0
-2 7 19 21 0
-2 9 19 -24 0
-10 -12 -20 -24 0
3 16 19 -21 0
-2 3 5 -20 0
1 16 25 26 0
17 -18 -23 -28 0
5 -12 20 -29 0
-4 5 12 -27 0
8 -9 -17 -25 0
5 23 -26 -30 0
5 15 19 24 0
